&BANDS
    outdir='./tempdir/',
    prefix='ni',
    filband='ni.noncolin.data',
    lsigma(3)=.true.
/
