 &control
    calculation='bands'
    restart_mode='from_scratch',
    !pseudo_dir = '~/QE-2021/pseudo', ! uncomment if ESPRESSO_PSEUDO variable is unset
    !outdir='./tempdir'
    prefix='fe'
 /
 &system
    ibrav = 3, celldm(1) =5.39, nat= 1, ntyp= 1,
    noncolin=.true.,  starting_magnetization(1)=0.3,
    lspinorb=.true. 
    ecutwfc = 70, ecutrho = 850.0,
    occupations='smearing', smearing='marzari-vanderbilt', degauss=0.02
 /
 &electrons
    diagonalization='david'
    conv_thr = 1.0e-8
    mixing_beta = 0.7
 /
ATOMIC_SPECIES
 Fe 55.845 Fe.rel-pbe-spn-rrkjus_psl.1.0.0.UPF
ATOMIC_POSITIONS alat
 Fe 0.0 0.0 0.0
K_POINTS crystal_b
6
  0.000  0.000  0.000  40  !gamma
  0.500 -0.500  0.500  25  !H
  0.000  0.000  0.500  20  !N
  0.000  0.000  0.000  20  !gamma
  0.250  0.250  0.250  20  !P
  0.500 -0.500  0.500   1  !gamma

