&INPUTPP
  calculation = 'eps'
  prefix = 'Benzene',
  outdir='./out'
/
&ENERGY_GRID
  smeartype = 'gaussian'
  intersmear = 0.1
  wmin = 0.0
  wmax = 15.0
  nw = 1000
/
