 &input
   fildyn='',        ! Specify fildyn name the same as in AlAs.ph.in
   zasr='simple', 
   flfrc='AlAs444.fc'
 /
