&CONTROL
                       title = 'C70'
                 calculation = 'scf'
                restart_mode = 'from_scratch'
                  pseudo_dir = './'
                      outdir = '/path/to/scratch/space'
                      prefix = 'C70'
                   verbosity = 'high'
/
&SYSTEM
                       ibrav = 0
                         nat = 280
                        ntyp = 1
                     ecutwfc = 45.0
                     ecutrho = 450.0
                 occupations = 'smearing'
                     degauss = 0.002
                    smearing = 'methfessel-paxton'
/
&ELECTRONS
                    conv_thr = 1.D-8 ,
                 startingpot = 'atomic' ,
                 startingwfc = 'atomic' ,
                 mixing_mode = 'plain' ,
                 mixing_beta = 0.6 ,
             diagonalization = 'david' ,
            electron_maxstep = 10
/
CELL_PARAMETERS { angstrom }
       17.3029994965         0.0000000000         0.0000000000
        0.0000000000         9.9899997711         0.0000000000
        0.0000000000         0.0000000000        17.9239997864

ATOMIC_SPECIES
    C   18.00000 C_pbe_v1.2.uspp.F.UPF 

ATOMIC_POSITIONS crystal
  C   0.443100005         0.073500000         0.816799998
  C   0.556900024         0.926500022         0.183200002
  C   0.556900024         0.926500022         0.316799998
  C   0.443100005         0.073500000         0.683200002
  C   0.443100005         0.926500022         0.683200002
  C   0.556900024         0.073500000         0.316799998
  C   0.556900024         0.073500000         0.183200002
  C   0.443100005         0.926500022         0.816799998
  C   0.943099976         0.573499978         0.816799998
  C   0.056899995         0.426499993         0.183200002
  C   0.056899995         0.426499993         0.316799998
  C   0.943099976         0.573499978         0.683200002
  C   0.943099976         0.426499993         0.683200002
  C   0.056899995         0.573499978         0.316799998
  C   0.056899995         0.573499978         0.183200002
  C   0.943099976         0.426499993         0.816799998
  C   0.595399976         0.226400003         0.929099977
  C   0.404600024         0.773599982         0.070900023
  C   0.404600024         0.773599982         0.429099977
  C   0.595399976         0.226400003         0.570900023
  C   0.595399976         0.773599982         0.570900023
  C   0.404600024         0.226400003         0.429099977
  C   0.404600024         0.226400003         0.070900023
  C   0.595399976         0.773599982         0.929099977
  C   0.095399976         0.726400018         0.929099977
  C   0.904600024         0.273599982         0.070900023
  C   0.904600024         0.273599982         0.429099977
  C   0.095399976         0.726400018         0.570900023
  C   0.095399976         0.273599982         0.570900023
  C   0.904600024         0.726400018         0.429099977
  C   0.904600024         0.726400018         0.070900023
  C   0.095399976         0.273599982         0.929099977
  C   0.453599989         0.141800001         0.750000000
  C   0.546400011         0.858200014         0.250000000
  C   0.453599989         0.858200014         0.750000000
  C   0.546400011         0.141800001         0.250000000
  C   0.953599989         0.641799986         0.750000000
  C   0.046400011         0.358200014         0.250000000
  C   0.953599989         0.358200014         0.750000000
  C   0.046400011         0.641799986         0.250000000
  C   0.822799981         0.139699996         0.817700028
  C   0.177200019         0.860300004         0.182299972
  C   0.177200019         0.860300004         0.317700028
  C   0.822799981         0.139699996         0.682299972
  C   0.822799981         0.860300004         0.682299972
  C   0.177200019         0.139699996         0.317700028
  C   0.177200019         0.139699996         0.182299972
  C   0.822799981         0.860300004         0.817700028
  C   0.322799981         0.639699996         0.817700028
  C   0.677200019         0.360300004         0.182299972
  C   0.677200019         0.360300004         0.317700028
  C   0.322799981         0.639699996         0.682299972
  C   0.322799981         0.360300004         0.682299972
  C   0.677200019         0.639699996         0.317700028
  C   0.677200019         0.639699996         0.182299972
  C   0.322799981         0.360300004         0.817700028
  C   0.525500000         0.224199995         0.886399984
  C   0.474500000         0.775799990         0.113600016
  C   0.474500000         0.775799990         0.386399984
  C   0.525500000         0.224199995         0.613600016
  C   0.525500000         0.775799990         0.613600016
  C   0.474500000         0.224199995         0.386399984
  C   0.474500000         0.224199995         0.113600016
  C   0.525500000         0.775799990         0.886399984
  C   0.025500000         0.724200010         0.886399984
  C   0.974500000         0.275799990         0.113600016
  C   0.974500000         0.275799990         0.386399984
  C   0.025500000         0.724200010         0.613600016
  C   0.025500000         0.275799990         0.613600016
  C   0.974500000         0.724200010         0.386399984
  C   0.974500000         0.724200010         0.113600016
  C   0.025500000         0.275799990         0.886399984
  C   0.810000002         0.069799997         0.887199998
  C   0.189999998         0.930199981         0.112800002
  C   0.189999998         0.930199981         0.387199998
  C   0.810000002         0.069799997         0.612800002
  C   0.810000002         0.930199981         0.612800002
  C   0.189999998         0.069799997         0.387199998
  C   0.189999998         0.069799997         0.112800002
  C   0.810000002         0.930199981         0.887199998
  C   0.310000002         0.569800019         0.887199998
  C   0.689999998         0.430200011         0.112800002
  C   0.689999998         0.430200011         0.387199998
  C   0.310000002         0.569800019         0.612800002
  C   0.310000002         0.430200011         0.612800002
  C   0.689999998         0.569800019         0.387199998
  C   0.689999998         0.569800019         0.112800002
  C   0.310000002         0.430200011         0.887199998
  C   0.484899998         0.000000000         0.938099980
  C   0.515100002         0.000000000         0.061900020
  C   0.515100002         0.000000000         0.438099980
  C   0.484899998         0.000000000         0.561900020
  C   0.984899998         0.500000000         0.938099980
  C   0.015100002         0.500000000         0.061900020
  C   0.015100002         0.500000000         0.438099980
  C   0.984899998         0.500000000         0.561900020
  C   0.540099978         0.293099999         0.817799985
  C   0.459900022         0.706900001         0.182200015
  C   0.459900022         0.706900001         0.317799985
  C   0.540099978         0.293099999         0.682200015
  C   0.540099978         0.706900001         0.682200015
  C   0.459900022         0.293099999         0.317799985
  C   0.459900022         0.293099999         0.182200015
  C   0.540099978         0.706900001         0.817799985
  C   0.040099978         0.793099999         0.817799985
  C   0.959900022         0.206900001         0.182200015
  C   0.959900022         0.206900001         0.317799985
  C   0.040099978         0.793099999         0.682200015
  C   0.040099978         0.206900001         0.682200015
  C   0.959900022         0.793099999         0.317799985
  C   0.959900022         0.793099999         0.182200015
  C   0.040099978         0.206900001         0.817799985
  C   0.739799976         0.303200006         0.750000000
  C   0.260200024         0.696799994         0.250000000
  C   0.739799976         0.696799994         0.750000000
  C   0.260200024         0.303200006         0.250000000
  C   0.239799976         0.803200006         0.750000000
  C   0.760200024         0.196799994         0.250000000
  C   0.239799976         0.196799994         0.750000000
  C   0.760200024         0.803200006         0.250000000
  C   0.773599982         0.251399994         0.816200018
  C   0.226400018         0.748600006         0.183799982
  C   0.226400018         0.748600006         0.316200018
  C   0.773599982         0.251399994         0.683799982
  C   0.773599982         0.748600006         0.683799982
  C   0.226400018         0.251399994         0.316200018
  C   0.226400018         0.251399994         0.183799982
  C   0.773599982         0.748600006         0.816200018
  C   0.273599982         0.751399994         0.816200018
  C   0.726400018         0.248600006         0.183799982
  C   0.726400018         0.248600006         0.316200018
  C   0.273599982         0.751399994         0.683799982
  C   0.273599982         0.248600006         0.683799982
  C   0.726400018         0.751399994         0.316200018
  C   0.726400018         0.751399994         0.183799982
  C   0.273599982         0.248600006         0.816200018
  C   0.564899981         0.000000000         0.985099971
  C   0.435100019         0.000000000         0.014900029
  C   0.435100019         0.000000000         0.485099971
  C   0.564899981         0.000000000         0.514900029
  C   0.064899981         0.500000000         0.985099971
  C   0.935100019         0.500000000         0.014900029
  C   0.935100019         0.500000000         0.485099971
  C   0.064899981         0.500000000         0.514900029
  C   0.842999995         0.075499997         0.750000000
  C   0.157000005         0.924499989         0.250000000
  C   0.842999995         0.924499989         0.750000000
  C   0.157000005         0.075499997         0.250000000
  C   0.342999995         0.575500011         0.750000000
  C   0.657000005         0.424499989         0.250000000
  C   0.342999995         0.424499989         0.750000000
  C   0.657000005         0.575500011         0.250000000
  C   0.618700027         0.338499993         0.816999972
  C   0.381299973         0.661499977         0.183000028
  C   0.381299973         0.661499977         0.316999972
  C   0.618700027         0.338499993         0.683000028
  C   0.618700027         0.661499977         0.683000028
  C   0.381299973         0.338499993         0.316999972
  C   0.381299973         0.338499993         0.183000028
  C   0.618700027         0.661499977         0.816999972
  C   0.118700027         0.838500023         0.816999972
  C   0.881299973         0.161500007         0.183000028
  C   0.881299973         0.161500007         0.316999972
  C   0.118700027         0.838500023         0.683000028
  C   0.118700027         0.161500007         0.683000028
  C   0.881299973         0.838500023         0.316999972
  C   0.881299973         0.838500023         0.183000028
  C   0.118700027         0.161500007         0.816999972
  C   0.695900023         0.072499998         0.970799983
  C   0.304099977         0.927500010         0.029200017
  C   0.304099977         0.927500010         0.470799983
  C   0.695900023         0.072499998         0.529200017
  C   0.695900023         0.927500010         0.529200017
  C   0.304099977         0.072499998         0.470799983
  C   0.304099977         0.072499998         0.029200017
  C   0.695900023         0.927500010         0.970799983
  C   0.195900023         0.572499990         0.970799983
  C   0.804099977         0.427500010         0.029200017
  C   0.804099977         0.427500010         0.470799983
  C   0.195900023         0.572499990         0.529200017
  C   0.195900023         0.427500010         0.529200017
  C   0.804099977         0.572499990         0.470799983
  C   0.804099977         0.572499990         0.029200017
  C   0.195900023         0.427500010         0.970799983
  C   0.617999971         0.119999997         0.972299993
  C   0.382000029         0.879999995         0.027700007
  C   0.382000029         0.879999995         0.472299993
  C   0.617999971         0.119999997         0.527700007
  C   0.617999971         0.879999995         0.527700007
  C   0.382000029         0.119999997         0.472299993
  C   0.382000029         0.119999997         0.027700007
  C   0.617999971         0.879999995         0.972299993
  C   0.117999971         0.620000005         0.972299993
  C   0.882000029         0.379999995         0.027700007
  C   0.882000029         0.379999995         0.472299993
  C   0.117999971         0.620000005         0.527700007
  C   0.117999971         0.379999995         0.527700007
  C   0.882000029         0.620000005         0.472299993
  C   0.882000029         0.620000005         0.027700007
  C   0.117999971         0.379999995         0.972299993
  C   0.502600014         0.259900004         0.750000000
  C   0.497399986         0.740100026         0.250000000
  C   0.502600014         0.740100026         0.750000000
  C   0.497399986         0.259900004         0.250000000
  C   0.002600014         0.759899974         0.750000000
  C   0.997399986         0.240099996         0.250000000
  C   0.002600014         0.240099996         0.750000000
  C   0.997399986         0.759899974         0.250000000
  C   0.728100002         0.252099991         0.887000024
  C   0.271899998         0.747900009         0.112999976
  C   0.271899998         0.747900009         0.387000024
  C   0.728100002         0.252099991         0.612999976
  C   0.728100002         0.747900009         0.612999976
  C   0.271899998         0.252099991         0.387000024
  C   0.271899998         0.252099991         0.112999976
  C   0.728100002         0.747900009         0.887000024
  C   0.228100002         0.752099991         0.887000024
  C   0.771899998         0.247900009         0.112999976
  C   0.771899998         0.247900009         0.387000024
  C   0.228100002         0.752099991         0.612999976
  C   0.228100002         0.247900009         0.612999976
  C   0.771899998         0.752099991         0.387000024
  C   0.771899998         0.752099991         0.112999976
  C   0.228100002         0.247900009         0.887000024
  C   0.477499992         0.116700001         0.885999978
  C   0.522500038         0.883300006         0.114000022
  C   0.522500038         0.883300006         0.385999978
  C   0.477499992         0.116700001         0.614000022
  C   0.477499992         0.883300006         0.614000022
  C   0.522500038         0.116700001         0.385999978
  C   0.522500038         0.116700001         0.114000022
  C   0.477499992         0.883300006         0.885999978
  C   0.977499962         0.616699994         0.885999978
  C   0.022500008         0.383300006         0.114000022
  C   0.022500008         0.383300006         0.385999978
  C   0.977499962         0.616699994         0.614000022
  C   0.977499962         0.383300006         0.614000022
  C   0.022500008         0.616699994         0.385999978
  C   0.022500008         0.616699994         0.114000022
  C   0.977499962         0.383300006         0.885999978
  C   0.651300013         0.298500001         0.885299981
  C   0.348699987         0.701499999         0.114700019
  C   0.348699987         0.701499999         0.385299981
  C   0.651300013         0.298500001         0.614700019
  C   0.651300013         0.701499999         0.614700019
  C   0.348699987         0.298500001         0.385299981
  C   0.348699987         0.298500001         0.114700019
  C   0.651300013         0.701499999         0.885299981
  C   0.151300013         0.798500001         0.885299981
  C   0.848699987         0.201499999         0.114700019
  C   0.848699987         0.201499999         0.385299981
  C   0.151300013         0.798500001         0.614700019
  C   0.151300013         0.201499999         0.614700019
  C   0.848699987         0.798500001         0.385299981
  C   0.848699987         0.798500001         0.114700019
  C   0.151300013         0.201499999         0.885299981
  C   0.659200013         0.347099990         0.750000000
  C   0.340799987         0.652899981         0.250000000
  C   0.659200013         0.652899981         0.750000000
  C   0.340799987         0.347099990         0.250000000
  C   0.159200013         0.847100019         0.750000000
  C   0.840799987         0.152900010         0.250000000
  C   0.159200013         0.152900010         0.750000000
  C   0.840799987         0.847100019         0.250000000
  C   0.751699984         0.142000005         0.929000020
  C   0.248300016         0.857999980         0.070999980
  C   0.248300016         0.857999980         0.429000020
  C   0.751699984         0.142000005         0.570999980
  C   0.751699984         0.857999980         0.570999980
  C   0.248300016         0.142000005         0.429000020
  C   0.248300016         0.142000005         0.070999980
  C   0.751699984         0.857999980         0.929000020
  C   0.251699984         0.642000020         0.929000020
  C   0.748300016         0.357999980         0.070999980
  C   0.748300016         0.357999980         0.429000020
  C   0.251699984         0.642000020         0.570999980
  C   0.251699984         0.357999980         0.570999980
  C   0.748300016         0.642000020         0.429000020
  C   0.748300016         0.642000020         0.070999980
  C   0.251699984         0.357999980         0.929000020
 
K_POINTS gamma
!1 1 1 0 0 0 

