 &control
    calculation='nscf'
    restart_mode='from_scratch',
    !pseudo_dir = '~/QE-2021/pseudo/',
    !outdir='./tempdir/',
    prefix='co'
 /
 &system
    ibrav = 4, celldm(1) = 4.715, celldm(3) = 1.622, nat= 2, ntyp= 1,
    nspin = 2, starting_magnetization(1)=0.7,
    nbnd = 20,
    ecutwfc = 45.0, ecutrho = 360,
    occupations='tetrahedra_opt'
 /
 &electrons
    diagonalization='david'
    conv_thr = 1.0e-8
    mixing_beta = 0.7
 /
&ions
/
&cell
/
ATOMIC_SPECIES
 Co 58.933 Co_pbe_v1.2.uspp.F.UPF
ATOMIC_POSITIONS alat
 Co 0.0 0.0 0.0
 Co 0.5 0.2886751346 0.811
K_POINTS AUTOMATIC
20 20 14 0 0 1 
