 &dos
    outdir='./tempdir/',
    prefix='co',
    fildos='co.dos',
    Emin=5.0, Emax=25.0, DeltaE=0.05
 /
