&CONTROL    
    calculation = 'scf'
    restart_mode='from_scratch',
    pseudo_dir = './',
    outdir='./out',
    prefix='Si'
/
&SYSTEM
    ibrav = 2,
    celldm(1) = 10.26,
    nat = 2,
    ntyp = 1,
    ecutwfc = 16.0
/  
&ELECTRONS
    diagonalization='david'
    mixing_mode = 'plain',
    mixing_beta = 0.7,
    conv_thr =  1.0d-8
/
ATOMIC_SPECIES
 Si  28.08  Si.pz-vbc.UPF
ATOMIC_POSITIONS
 Si 0.00 0.00 0.00
 Si 0.25 0.25 0.25
K_POINTS {automatic}
10 10 10 1 1 1
