Phonons on a uniform q-grid
 &inputph
  prefix='Si',
  tr2_ph = 1.0d-14,
  amass(1) = 28.0855,
  ldisp = .true.,
  nq1 = 4, 
  nq2 = 4, 
  nq3 = 4,
  outdir='./out'
  fildyn='Si.dyn',
 /
