 &input
  fildyn = 'Si.dyn',
  asr = 'simple'
 /
