 &CONTROL
    prefix='silicon',

    ! this is a comment: you can comment out variables

    ! if "pseudo_dir" and "outdir" are not set then pw.x will use the
    ! values of ESPRESSO_PSEUDO and ESPRESSO_TMPDIR environmental
    ! variables instead

    ! pseudo_dir =
    ! outdir     =
 /

 &SYSTEM    
    ibrav = 2,
    celldm(1) = 10.2,
    nat =  2,
    ntyp = 1,
    ecutwfc = 12.0, 
 /
 
 &ELECTRONS
 /

ATOMIC_SPECIES
   Si  28.086  Si.pz-vbc.UPF
   
ATOMIC_POSITIONS alat
   Si 0.00 0.00 0.00 
   Si 0.25 0.25 0.25 
   ! this is a comment 

#K_POINTS tpiba
# this is also a comment: next line, number of k-points
# 2
# 0.25 0.25 0.25  1.0
# 0.25 0.25 0.75  3.0

K_POINTS automatic
   4 4 4   1 1 1
