&CONTROL    
    calculation = 'scf'
    restart_mode='from_scratch',
    prefix='silicon'
    pseudo_dir = '../../pseudo',
    !outdir='./tmp'
/
&SYSTEM
    ibrav = 2,
    celldm(1) = 10.26,
    nat = 2,
    ntyp = 1,
    ecutwfc = 16.0
/  
&ELECTRONS
    conv_thr = 1.0d-8
    mixing_beta = 0.7,
/
ATOMIC_SPECIES {alat}
 Si  28.08  Si.pz-vbc.UPF
ATOMIC_POSITIONS {alat}
 Si 0.00 0.00 0.00
 Si 0.25 0.25 0.25
K_POINTS {automatic}
10 10 10 1 1 1
