 &input
  zasr='simple',  
  fildyn='bn.disp.dyn', 
  flfrc='bn661.fc', 
  loto_2d=.true.,
 /
