&BANDS
    outdir='./tempdir/',
    prefix='ni',
    filband='ni.spinup.band_data',
    spin_component = 1,
/
