Phonon calculation for 2D hexagonal BN
 &inputph
  tr2_ph=1.0d-15,
  prefix='bn',
  outdir='./out'
  fildyn='bn.disp.dyn',
  ldisp=.true.
  nq1=6, 
  nq2=6, 
  nq3=1,
/
