 &projwfc
    !outdir='./tempdir/',
    prefix='fe'
    Emin=5.0, Emax=25.0, DeltaE=0.05
 /
