 &control
    calculation='nscf',
    restart_mode='from_scratch',
    !pseudo_dir = '~/QE-2021/pseudo/',
    !outdir='./tempdir/',
    prefix='ni',
 /
 &system
    ibrav=2, celldm(1) =6.648, nat=1, ntyp=1,
    nspin = 2,  starting_magnetization(1)=0.7,
    nbnd = 10,
    ecutwfc = 45.0, ecutrho = 360.0,
    occupations='tetrahedra_opt'
 /
 &electrons
    diagonalization='david'
    conv_thr = 1.0e-8
    mixing_beta = 0.7
 /
ATOMIC_SPECIES
 Ni 58.69 ni_pbe_v1.4.uspp.F.UPF
ATOMIC_POSITIONS alat
 Ni 0.0 0.0 0.0
K_POINTS AUTOMATIC
20 20 20 1 1 1 
