 &control
    title = 'Water 8 molecules',
    restart_mode = 'restart',
    ndr = 53,
    ndw = 54,
    nstep  = 10000,
    iprint = 10,
    isave = 1000,
    ! tstress = .TRUE.,
    ! tprnfor = .TRUE.,
    dt    = 5.0d0,
    prefix = 'h2o',
    pseudo_dir='../pseudo',
    outdir='./',
 /
 &system
    ibrav=1, celldm(1)=13.00000
    nat = 24,
    ntyp = 2,
    ecutwfc = 50.0,
 /
 &electrons
    emass = 50.d0,
    electron_dynamics = 'verlet',
 /
 &ions
    ion_dynamics = 'verlet',
    !ion_velocities = 'zero',
    ion_velocities = 'default',
    tempw=600.d0,
    ion_temperature = 'not_controlled',
 /
 &cell
 /
ATOMIC_SPECIES
 O  16.0d0   O_ONCV_PBE-1.2.upf
 H  1.0079d0 H_ONCV_PBE-1.2.upf
ATOMIC_POSITIONS (bohr)
O   0.48425102952101E+01     0.37961987444088E+01     0.37327381430173E+01
H   0.40045904816720E+01     0.59867799653268E+01     0.35330129791271E+01
H   0.43651175783709E+01     0.38723218001876E+01     0.58797734074100E+01
O   0.37356574289384E+01    -0.44747002555544E+01     0.29242739490968E+01
H   0.60591480525558E+01    -0.37950308878052E+01     0.31534025213325E+01
H   0.28749619712861E+01    -0.39586722357631E+01     0.46751869989712E+01
O  -0.45466860308386E+01    -0.35422621276003E+01     0.30607442672430E+01
H  -0.37488382797211E+01    -0.58116264134953E+01     0.33207580642326E+01
H  -0.40539478128360E+01    -0.25743644332842E+01     0.47683540965636E+01
O  -0.34365057953046E+01     0.48042682147233E+01     0.33772341318046E+01
H  -0.59041512457399E+01     0.42174303155281E+01     0.38014151466890E+01
H  -0.23030769008515E+01     0.46720049038444E+01     0.50821358987130E+01
O   0.36144195243782E+01    -0.42827457674593E+01    -0.39899980086654E+01
H   0.31198656062526E+01    -0.45610696424210E+01    -0.20022000203335E+01
H   0.59144800748620E+01    -0.39529825813534E+01    -0.38666276232141E+01
O  -0.44370946792819E+01    -0.40253658651776E+01    -0.40851101377693E+01
H  -0.39508218126754E+01    -0.36848090700940E+01    -0.21027197127076E+01
H  -0.39403988307857E+01    -0.61904746485483E+01    -0.41653506412705E+01
O  -0.35587892994654E+01     0.38773012775526E+01    -0.38192334238418E+01
H  -0.32332194882106E+01     0.34352421960554E+01    -0.18180551968315E+01
H  -0.56904752202074E+01     0.34796638592131E+01    -0.37894354717772E+01
O   0.38377828950880E+01     0.38204092706037E+01    -0.45079974049078E+01
H   0.20131356918203E+01     0.30922405697794E+01    -0.39131118473731E+01
H   0.36593535000291E+01     0.62003173674732E+01    -0.43870392213130E+01

