 &control
    title = ' Water 32 molecules ',
    restart_mode = 'restart',
    ndr = 51,
    ndw = 52,
    nstep  = 1000,
    iprint = 10,
    isave  = 10,
    ! tstress = .TRUE.,
    ! tprnfor = .TRUE.,
    dt    = 5.0d0,
    prefix = 'h2o',
    pseudo_dir='./',
    outdir='./',
 /
 &system
    ibrav=1, celldm(1)=13.00000
    nat = 30,
    ntyp = 2,
    ecutwfc = 50.0,
 /
 &electrons
    emass = 50.d0,
    emass_cutoff = 2.5d0,
    electron_dynamics = 'verlet',
 /
 &ions
    ion_dynamics = 'verlet',
    !ion_velocities = 'zero',
    ion_velocities = 'default',
    tempw=600.d0,
    ion_temperature = 'nose',
    fnosep = 5.d0,
    nhpcl=3,

 /
 &cell
    cell_dynamics = 'none',
 /
ATOMIC_SPECIES
 O  16.0d0   O.blyp-mt.UPF
 H  1.0079d0 H.blyp-vbc.UPF
ATOMIC_POSITIONS (bohr)
 O    0.53337042584825E+01     0.14345380550430E+02     0.12258174461076E+02
 H    0.51372568457709E+01     0.16905566932773E+02     0.12009838865966E+02
 H    0.30515123352162E+01     0.13282034463971E+02     0.11407295673436E+02
 O    0.90720415063971E+01     0.10859858202474E+02     0.11175889476515E+02
 H    0.73676992639853E+01     0.89047205357667E+01     0.10708797631274E+02
 H    0.74974381566672E+01     0.13073967236158E+02     0.11017547887880E+02
 O    0.70216335277425E+01     0.56290970445146E+01     0.63082483276898E+01
 H    0.96380338307404E+01     0.58703033145104E+01     0.67027275865067E+01
 H    0.63089480029016E+01     0.79179850680911E+01     0.52006243857472E+01
 O    0.10574786427732E+02     0.79718750769070E+01     0.15317204950551E+02
 H    0.10626430611790E+02     0.10385899416661E+02     0.14107245001007E+02
 H    0.80410269796204E+01     0.72776433761901E+01     0.14729120789624E+02
 O    0.52871191535891E+01     0.67388919804043E+01     0.11057369797852E+02
 H    0.27858004058649E+01     0.77053357978437E+01     0.10844132618251E+02
 H    0.55274677573017E+01     0.58276859749309E+01     0.84528653996647E+01
 O    0.67083795763814E+01     0.12660284784799E+02     0.40388525302105E+01
 H    0.70839755309185E+01     0.14802326957387E+02     0.54973563304609E+01
 H    0.60588556206729E+01     0.13916492444893E+02     0.18334673564196E+01
 O    0.14767673854043E+02     0.10557045617409E+02     0.52515833412575E+01
 H    0.17178076129183E+02     0.11622049987860E+02     0.48090774710031E+01
 H    0.14040356998817E+02     0.12241169060400E+02     0.70924157938440E+01
 O    0.13549045750684E+02     0.13014030318372E+02     0.98414501028117E+01
 H    0.12528390578482E+02     0.15348923095473E+02     0.10669095197720E+02
 H    0.11535968703780E+02     0.11206399954037E+02     0.10143830246487E+02
 O    0.12427490136525E+02     0.37745962742100E+01     0.13001822294999E+02
 H    0.12035658667248E+02     0.63139786694218E+01     0.13591926697772E+02
 H    0.13050227940615E+02     0.23994028221688E+01     0.15216984294034E+02
 O    0.12066075270337E+02     0.61545657429520E+01     0.76343584928821E+01
 H    0.13353159031537E+02     0.77582076932181E+01     0.58923857835084E+01
 H    0.13326871988669E+02     0.39058710025719E+01     0.70963812531032E+01
